c A SAT instance generated from a 3-CNF formula that had 12 clauses and 4 variables
p cnf 4 12
-2 4 1 0
-2 -4 3 0
3 -4 1 0
3 4 1 0
-2 4 -3 0
4 -3 2 0
-2 3 1 0
-1 4 -2 0
1 -4 -3 0
2 -3 -1 0
4 1 2 0
1 -4 2 0
